% demand
num_movements = 16;
loading_factor = [1900, 1850, 1650, 1300, 1000, 1200, 900, 1950, 1050, 1100, 1700, 1200, 800, 1950, 1800, 1000];
pickup_time = [0, 1, 1, 1, 1, 1, 2, 4, 4, 5, 5, 6, 9, 9, 10, 10];
delivery_time = [1, 5, 3, 3, 2, 3, 3, 9, 8, 8, 12, 9, 10, 12, 12, 12];

% transporter definition
total_capacity = 7000;
num_decks = 3;
capacity = [3000, 1000, 3000];

% ways out of decks
num_ways_out = 1;
paths_out = array3d(decks, ways_out, decks, [
% ways out of deck d1
2, 3, 0, 

% ways out of deck d2
3, 0, 0, 

% ways out of deck d3
0, 0, 0,	

]);

